c ind 1 2 3 4 5 6 7 8 9 10 11 12 13 14 15 16 17 18 19 20 21 22 23 24 25 26 27 28 29 30 31 32 33 34 35 36 37 38 39 40 41 42 43 44 45 46 47 48 49 50 51 52 53 54 55 56 57 58 59 60 61 62 63 64 65 66 67 68 69 70 71 72 73 74 75 76 77 78 79 80 81 82 83 84 85 86 87 88 89 90 91 92 93 94 95 96 97 98 99 100 101 102 103 104 105 106 107 108 109 110 111 112 113 114 115 116 117 118 119 120 121 122 123 124 125 0
p cnf 1211 2046             
-2 -1 -126 0
126 -134 0
-1 127 0
-2 127 0
1 2 -127 0
-127 -3 -128 0
128 -134 0
-3 129 0
-127 129 0
3 127 -129 0
-129 -4 -130 0
130 -134 0
-4 131 0
-129 131 0
4 129 -131 0
-131 -5 -132 0
132 -134 0
5 131 -133 0
133 -134 0
134 -171 0
-7 -6 -135 0
135 -143 0
-6 136 0
-7 136 0
6 7 -136 0
-136 -8 -137 0
137 -143 0
-8 138 0
-136 138 0
8 136 -138 0
-138 -9 -139 0
139 -143 0
-9 140 0
-138 140 0
9 138 -140 0
-140 -10 -141 0
141 -143 0
10 140 -142 0
142 -143 0
143 -171 0
-12 -11 -144 0
144 -152 0
-11 145 0
-12 145 0
11 12 -145 0
-145 -13 -146 0
146 -152 0
-13 147 0
-145 147 0
13 145 -147 0
-147 -14 -148 0
148 -152 0
-14 149 0
-147 149 0
14 147 -149 0
-149 -15 -150 0
150 -152 0
15 149 -151 0
151 -152 0
152 -171 0
-17 -16 -153 0
153 -161 0
-16 154 0
-17 154 0
16 17 -154 0
-154 -18 -155 0
155 -161 0
-18 156 0
-154 156 0
18 154 -156 0
-156 -19 -157 0
157 -161 0
-19 158 0
-156 158 0
19 156 -158 0
-158 -20 -159 0
159 -161 0
20 158 -160 0
160 -161 0
161 -171 0
-22 -21 -162 0
162 -170 0
-21 163 0
-22 163 0
21 22 -163 0
-163 -23 -164 0
164 -170 0
-23 165 0
-163 165 0
23 163 -165 0
-165 -24 -166 0
166 -170 0
-24 167 0
-165 167 0
24 165 -167 0
-167 -25 -168 0
168 -170 0
25 167 -169 0
169 -170 0
170 -171 0
-27 -26 -172 0
172 -180 0
-26 173 0
-27 173 0
26 27 -173 0
-173 -28 -174 0
174 -180 0
-28 175 0
-173 175 0
28 173 -175 0
-175 -29 -176 0
176 -180 0
-29 177 0
-175 177 0
29 175 -177 0
-177 -30 -178 0
178 -180 0
30 177 -179 0
179 -180 0
180 -217 0
-32 -31 -181 0
181 -189 0
-31 182 0
-32 182 0
31 32 -182 0
-182 -33 -183 0
183 -189 0
-33 184 0
-182 184 0
33 182 -184 0
-184 -34 -185 0
185 -189 0
-34 186 0
-184 186 0
34 184 -186 0
-186 -35 -187 0
187 -189 0
35 186 -188 0
188 -189 0
189 -217 0
-37 -36 -190 0
190 -198 0
-36 191 0
-37 191 0
36 37 -191 0
-191 -38 -192 0
192 -198 0
-38 193 0
-191 193 0
38 191 -193 0
-193 -39 -194 0
194 -198 0
-39 195 0
-193 195 0
39 193 -195 0
-195 -40 -196 0
196 -198 0
40 195 -197 0
197 -198 0
198 -217 0
-42 -41 -199 0
199 -207 0
-41 200 0
-42 200 0
41 42 -200 0
-200 -43 -201 0
201 -207 0
-43 202 0
-200 202 0
43 200 -202 0
-202 -44 -203 0
203 -207 0
-44 204 0
-202 204 0
44 202 -204 0
-204 -45 -205 0
205 -207 0
45 204 -206 0
206 -207 0
207 -217 0
-47 -46 -208 0
208 -216 0
-46 209 0
-47 209 0
46 47 -209 0
-209 -48 -210 0
210 -216 0
-48 211 0
-209 211 0
48 209 -211 0
-211 -49 -212 0
212 -216 0
-49 213 0
-211 213 0
49 211 -213 0
-213 -50 -214 0
214 -216 0
50 213 -215 0
215 -216 0
216 -217 0
-52 -51 -218 0
218 -226 0
-51 219 0
-52 219 0
51 52 -219 0
-219 -53 -220 0
220 -226 0
-53 221 0
-219 221 0
53 219 -221 0
-221 -54 -222 0
222 -226 0
-54 223 0
-221 223 0
54 221 -223 0
-223 -55 -224 0
224 -226 0
55 223 -225 0
225 -226 0
226 -263 0
-57 -56 -227 0
227 -235 0
-56 228 0
-57 228 0
56 57 -228 0
-228 -58 -229 0
229 -235 0
-58 230 0
-228 230 0
58 228 -230 0
-230 -59 -231 0
231 -235 0
-59 232 0
-230 232 0
59 230 -232 0
-232 -60 -233 0
233 -235 0
60 232 -234 0
234 -235 0
235 -263 0
-62 -61 -236 0
236 -244 0
-61 237 0
-62 237 0
61 62 -237 0
-237 -63 -238 0
238 -244 0
-63 239 0
-237 239 0
63 237 -239 0
-239 -64 -240 0
240 -244 0
-64 241 0
-239 241 0
64 239 -241 0
-241 -65 -242 0
242 -244 0
65 241 -243 0
243 -244 0
244 -263 0
-67 -66 -245 0
245 -253 0
-66 246 0
-67 246 0
66 67 -246 0
-246 -68 -247 0
247 -253 0
-68 248 0
-246 248 0
68 246 -248 0
-248 -69 -249 0
249 -253 0
-69 250 0
-248 250 0
69 248 -250 0
-250 -70 -251 0
251 -253 0
70 250 -252 0
252 -253 0
253 -263 0
-72 -71 -254 0
254 -262 0
-71 255 0
-72 255 0
71 72 -255 0
-255 -73 -256 0
256 -262 0
-73 257 0
-255 257 0
73 255 -257 0
-257 -74 -258 0
258 -262 0
-74 259 0
-257 259 0
74 257 -259 0
-259 -75 -260 0
260 -262 0
75 259 -261 0
261 -262 0
262 -263 0
-77 -76 -264 0
264 -272 0
-76 265 0
-77 265 0
76 77 -265 0
-265 -78 -266 0
266 -272 0
-78 267 0
-265 267 0
78 265 -267 0
-267 -79 -268 0
268 -272 0
-79 269 0
-267 269 0
79 267 -269 0
-269 -80 -270 0
270 -272 0
80 269 -271 0
271 -272 0
272 -309 0
-82 -81 -273 0
273 -281 0
-81 274 0
-82 274 0
81 82 -274 0
-274 -83 -275 0
275 -281 0
-83 276 0
-274 276 0
83 274 -276 0
-276 -84 -277 0
277 -281 0
-84 278 0
-276 278 0
84 276 -278 0
-278 -85 -279 0
279 -281 0
85 278 -280 0
280 -281 0
281 -309 0
-87 -86 -282 0
282 -290 0
-86 283 0
-87 283 0
86 87 -283 0
-283 -88 -284 0
284 -290 0
-88 285 0
-283 285 0
88 283 -285 0
-285 -89 -286 0
286 -290 0
-89 287 0
-285 287 0
89 285 -287 0
-287 -90 -288 0
288 -290 0
90 287 -289 0
289 -290 0
290 -309 0
-92 -91 -291 0
291 -299 0
-91 292 0
-92 292 0
91 92 -292 0
-292 -93 -293 0
293 -299 0
-93 294 0
-292 294 0
93 292 -294 0
-294 -94 -295 0
295 -299 0
-94 296 0
-294 296 0
94 294 -296 0
-296 -95 -297 0
297 -299 0
95 296 -298 0
298 -299 0
299 -309 0
-97 -96 -300 0
300 -308 0
-96 301 0
-97 301 0
96 97 -301 0
-301 -98 -302 0
302 -308 0
-98 303 0
-301 303 0
98 301 -303 0
-303 -99 -304 0
304 -308 0
-99 305 0
-303 305 0
99 303 -305 0
-305 -100 -306 0
306 -308 0
100 305 -307 0
307 -308 0
308 -309 0
-102 -101 -310 0
310 -318 0
-101 311 0
-102 311 0
101 102 -311 0
-311 -103 -312 0
312 -318 0
-103 313 0
-311 313 0
103 311 -313 0
-313 -104 -314 0
314 -318 0
-104 315 0
-313 315 0
104 313 -315 0
-315 -105 -316 0
316 -318 0
105 315 -317 0
317 -318 0
318 -355 0
-107 -106 -319 0
319 -327 0
-106 320 0
-107 320 0
106 107 -320 0
-320 -108 -321 0
321 -327 0
-108 322 0
-320 322 0
108 320 -322 0
-322 -109 -323 0
323 -327 0
-109 324 0
-322 324 0
109 322 -324 0
-324 -110 -325 0
325 -327 0
110 324 -326 0
326 -327 0
327 -355 0
-112 -111 -328 0
328 -336 0
-111 329 0
-112 329 0
111 112 -329 0
-329 -113 -330 0
330 -336 0
-113 331 0
-329 331 0
113 329 -331 0
-331 -114 -332 0
332 -336 0
-114 333 0
-331 333 0
114 331 -333 0
-333 -115 -334 0
334 -336 0
115 333 -335 0
335 -336 0
336 -355 0
-117 -116 -337 0
337 -345 0
-116 338 0
-117 338 0
116 117 -338 0
-338 -118 -339 0
339 -345 0
-118 340 0
-338 340 0
118 338 -340 0
-340 -119 -341 0
341 -345 0
-119 342 0
-340 342 0
119 340 -342 0
-342 -120 -343 0
343 -345 0
120 342 -344 0
344 -345 0
345 -355 0
-122 -121 -346 0
346 -354 0
-121 347 0
-122 347 0
121 122 -347 0
-347 -123 -348 0
348 -354 0
-123 349 0
-347 349 0
123 347 -349 0
-349 -124 -350 0
350 -354 0
-124 351 0
-349 351 0
124 349 -351 0
-351 -125 -352 0
352 -354 0
125 351 -353 0
353 -354 0
354 -355 0
51 411 0
-56 411 0
52 412 0
-57 412 0
53 413 0
-58 413 0
54 414 0
-59 414 0
55 415 0
-60 415 0
-411 -412 -413 -414 -415 416 0
56 417 0
-51 417 0
57 418 0
-52 418 0
58 419 0
-53 419 0
59 420 0
-54 420 0
60 421 0
-55 421 0
-417 -418 -419 -420 -421 422 0
-416 -422 423 0
-423 -424 0
101 356 0
-106 356 0
102 357 0
-107 357 0
103 358 0
-108 358 0
104 359 0
-109 359 0
105 360 0
-110 360 0
-356 -357 -358 -359 -360 361 0
106 362 0
-101 362 0
107 363 0
-102 363 0
108 364 0
-103 364 0
109 365 0
-104 365 0
110 366 0
-105 366 0
-362 -363 -364 -365 -366 367 0
-361 -367 368 0
-368 -410 0
1 396 0
-6 396 0
2 397 0
-7 397 0
3 398 0
-8 398 0
4 399 0
-9 399 0
5 400 0
-10 400 0
-396 -397 -398 -399 -400 401 0
6 402 0
-1 402 0
7 403 0
-2 403 0
8 404 0
-3 404 0
9 405 0
-4 405 0
10 406 0
-5 406 0
-402 -403 -404 -405 -406 407 0
-401 -407 408 0
-408 -409 0
26 382 0
-31 382 0
27 383 0
-32 383 0
28 384 0
-33 384 0
29 385 0
-34 385 0
30 386 0
-35 386 0
-382 -383 -384 -385 -386 387 0
31 388 0
-26 388 0
32 389 0
-27 389 0
33 390 0
-28 390 0
34 391 0
-29 391 0
35 392 0
-30 392 0
-388 -389 -390 -391 -392 393 0
-387 -393 394 0
-394 -395 0
76 369 0
-81 369 0
77 370 0
-82 370 0
78 371 0
-83 371 0
79 372 0
-84 372 0
80 373 0
-85 373 0
-369 -370 -371 -372 -373 374 0
81 375 0
-76 375 0
82 376 0
-77 376 0
83 377 0
-78 377 0
84 378 0
-79 378 0
85 379 0
-80 379 0
-375 -376 -377 -378 -379 380 0
-374 -380 381 0
-381 -395 0
395 -409 0
409 -410 0
410 -424 0
424 -1046 0
51 480 0
-61 480 0
52 481 0
-62 481 0
53 482 0
-63 482 0
54 483 0
-64 483 0
55 484 0
-65 484 0
-480 -481 -482 -483 -484 485 0
61 486 0
-51 486 0
62 487 0
-52 487 0
63 488 0
-53 488 0
64 489 0
-54 489 0
65 490 0
-55 490 0
-486 -487 -488 -489 -490 491 0
-485 -491 492 0
-492 -493 0
101 425 0
-111 425 0
102 426 0
-112 426 0
103 427 0
-113 427 0
104 428 0
-114 428 0
105 429 0
-115 429 0
-425 -426 -427 -428 -429 430 0
111 431 0
-101 431 0
112 432 0
-102 432 0
113 433 0
-103 433 0
114 434 0
-104 434 0
115 435 0
-105 435 0
-431 -432 -433 -434 -435 436 0
-430 -436 437 0
-437 -479 0
1 465 0
-11 465 0
2 466 0
-12 466 0
3 467 0
-13 467 0
4 468 0
-14 468 0
5 469 0
-15 469 0
-465 -466 -467 -468 -469 470 0
11 471 0
-1 471 0
12 472 0
-2 472 0
13 473 0
-3 473 0
14 474 0
-4 474 0
15 475 0
-5 475 0
-471 -472 -473 -474 -475 476 0
-470 -476 477 0
-477 -478 0
26 451 0
-36 451 0
27 452 0
-37 452 0
28 453 0
-38 453 0
29 454 0
-39 454 0
30 455 0
-40 455 0
-451 -452 -453 -454 -455 456 0
36 457 0
-26 457 0
37 458 0
-27 458 0
38 459 0
-28 459 0
39 460 0
-29 460 0
40 461 0
-30 461 0
-457 -458 -459 -460 -461 462 0
-456 -462 463 0
-463 -464 0
76 438 0
-86 438 0
77 439 0
-87 439 0
78 440 0
-88 440 0
79 441 0
-89 441 0
80 442 0
-90 442 0
-438 -439 -440 -441 -442 443 0
86 444 0
-76 444 0
87 445 0
-77 445 0
88 446 0
-78 446 0
89 447 0
-79 447 0
90 448 0
-80 448 0
-444 -445 -446 -447 -448 449 0
-443 -449 450 0
-450 -464 0
464 -478 0
478 -479 0
479 -493 0
493 -1046 0
51 549 0
-66 549 0
52 550 0
-67 550 0
53 551 0
-68 551 0
54 552 0
-69 552 0
55 553 0
-70 553 0
-549 -550 -551 -552 -553 554 0
66 555 0
-51 555 0
67 556 0
-52 556 0
68 557 0
-53 557 0
69 558 0
-54 558 0
70 559 0
-55 559 0
-555 -556 -557 -558 -559 560 0
-554 -560 561 0
-561 -562 0
101 494 0
-116 494 0
102 495 0
-117 495 0
103 496 0
-118 496 0
104 497 0
-119 497 0
105 498 0
-120 498 0
-494 -495 -496 -497 -498 499 0
116 500 0
-101 500 0
117 501 0
-102 501 0
118 502 0
-103 502 0
119 503 0
-104 503 0
120 504 0
-105 504 0
-500 -501 -502 -503 -504 505 0
-499 -505 506 0
-506 -548 0
1 534 0
-16 534 0
2 535 0
-17 535 0
3 536 0
-18 536 0
4 537 0
-19 537 0
5 538 0
-20 538 0
-534 -535 -536 -537 -538 539 0
16 540 0
-1 540 0
17 541 0
-2 541 0
18 542 0
-3 542 0
19 543 0
-4 543 0
20 544 0
-5 544 0
-540 -541 -542 -543 -544 545 0
-539 -545 546 0
-546 -547 0
26 520 0
-41 520 0
27 521 0
-42 521 0
28 522 0
-43 522 0
29 523 0
-44 523 0
30 524 0
-45 524 0
-520 -521 -522 -523 -524 525 0
41 526 0
-26 526 0
42 527 0
-27 527 0
43 528 0
-28 528 0
44 529 0
-29 529 0
45 530 0
-30 530 0
-526 -527 -528 -529 -530 531 0
-525 -531 532 0
-532 -533 0
76 507 0
-91 507 0
77 508 0
-92 508 0
78 509 0
-93 509 0
79 510 0
-94 510 0
80 511 0
-95 511 0
-507 -508 -509 -510 -511 512 0
91 513 0
-76 513 0
92 514 0
-77 514 0
93 515 0
-78 515 0
94 516 0
-79 516 0
95 517 0
-80 517 0
-513 -514 -515 -516 -517 518 0
-512 -518 519 0
-519 -533 0
533 -547 0
547 -548 0
548 -562 0
562 -1046 0
51 618 0
-71 618 0
52 619 0
-72 619 0
53 620 0
-73 620 0
54 621 0
-74 621 0
55 622 0
-75 622 0
-618 -619 -620 -621 -622 623 0
71 624 0
-51 624 0
72 625 0
-52 625 0
73 626 0
-53 626 0
74 627 0
-54 627 0
75 628 0
-55 628 0
-624 -625 -626 -627 -628 629 0
-623 -629 630 0
-630 -631 0
101 563 0
-121 563 0
102 564 0
-122 564 0
103 565 0
-123 565 0
104 566 0
-124 566 0
105 567 0
-125 567 0
-563 -564 -565 -566 -567 568 0
121 569 0
-101 569 0
122 570 0
-102 570 0
123 571 0
-103 571 0
124 572 0
-104 572 0
125 573 0
-105 573 0
-569 -570 -571 -572 -573 574 0
-568 -574 575 0
-575 -617 0
1 603 0
-21 603 0
2 604 0
-22 604 0
3 605 0
-23 605 0
4 606 0
-24 606 0
5 607 0
-25 607 0
-603 -604 -605 -606 -607 608 0
21 609 0
-1 609 0
22 610 0
-2 610 0
23 611 0
-3 611 0
24 612 0
-4 612 0
25 613 0
-5 613 0
-609 -610 -611 -612 -613 614 0
-608 -614 615 0
-615 -616 0
26 589 0
-46 589 0
27 590 0
-47 590 0
28 591 0
-48 591 0
29 592 0
-49 592 0
30 593 0
-50 593 0
-589 -590 -591 -592 -593 594 0
46 595 0
-26 595 0
47 596 0
-27 596 0
48 597 0
-28 597 0
49 598 0
-29 598 0
50 599 0
-30 599 0
-595 -596 -597 -598 -599 600 0
-594 -600 601 0
-601 -602 0
76 576 0
-96 576 0
77 577 0
-97 577 0
78 578 0
-98 578 0
79 579 0
-99 579 0
80 580 0
-100 580 0
-576 -577 -578 -579 -580 581 0
96 582 0
-76 582 0
97 583 0
-77 583 0
98 584 0
-78 584 0
99 585 0
-79 585 0
100 586 0
-80 586 0
-582 -583 -584 -585 -586 587 0
-581 -587 588 0
-588 -602 0
602 -616 0
616 -617 0
617 -631 0
631 -1046 0
56 687 0
-61 687 0
57 688 0
-62 688 0
58 689 0
-63 689 0
59 690 0
-64 690 0
60 691 0
-65 691 0
-687 -688 -689 -690 -691 692 0
61 693 0
-56 693 0
62 694 0
-57 694 0
63 695 0
-58 695 0
64 696 0
-59 696 0
65 697 0
-60 697 0
-693 -694 -695 -696 -697 698 0
-692 -698 699 0
-699 -700 0
106 632 0
-111 632 0
107 633 0
-112 633 0
108 634 0
-113 634 0
109 635 0
-114 635 0
110 636 0
-115 636 0
-632 -633 -634 -635 -636 637 0
111 638 0
-106 638 0
112 639 0
-107 639 0
113 640 0
-108 640 0
114 641 0
-109 641 0
115 642 0
-110 642 0
-638 -639 -640 -641 -642 643 0
-637 -643 644 0
-644 -686 0
6 672 0
-11 672 0
7 673 0
-12 673 0
8 674 0
-13 674 0
9 675 0
-14 675 0
10 676 0
-15 676 0
-672 -673 -674 -675 -676 677 0
11 678 0
-6 678 0
12 679 0
-7 679 0
13 680 0
-8 680 0
14 681 0
-9 681 0
15 682 0
-10 682 0
-678 -679 -680 -681 -682 683 0
-677 -683 684 0
-684 -685 0
31 658 0
-36 658 0
32 659 0
-37 659 0
33 660 0
-38 660 0
34 661 0
-39 661 0
35 662 0
-40 662 0
-658 -659 -660 -661 -662 663 0
36 664 0
-31 664 0
37 665 0
-32 665 0
38 666 0
-33 666 0
39 667 0
-34 667 0
40 668 0
-35 668 0
-664 -665 -666 -667 -668 669 0
-663 -669 670 0
-670 -671 0
81 645 0
-86 645 0
82 646 0
-87 646 0
83 647 0
-88 647 0
84 648 0
-89 648 0
85 649 0
-90 649 0
-645 -646 -647 -648 -649 650 0
86 651 0
-81 651 0
87 652 0
-82 652 0
88 653 0
-83 653 0
89 654 0
-84 654 0
90 655 0
-85 655 0
-651 -652 -653 -654 -655 656 0
-650 -656 657 0
-657 -671 0
671 -685 0
685 -686 0
686 -700 0
700 -1046 0
56 756 0
-66 756 0
57 757 0
-67 757 0
58 758 0
-68 758 0
59 759 0
-69 759 0
60 760 0
-70 760 0
-756 -757 -758 -759 -760 761 0
66 762 0
-56 762 0
67 763 0
-57 763 0
68 764 0
-58 764 0
69 765 0
-59 765 0
70 766 0
-60 766 0
-762 -763 -764 -765 -766 767 0
-761 -767 768 0
-768 -769 0
106 701 0
-116 701 0
107 702 0
-117 702 0
108 703 0
-118 703 0
109 704 0
-119 704 0
110 705 0
-120 705 0
-701 -702 -703 -704 -705 706 0
116 707 0
-106 707 0
117 708 0
-107 708 0
118 709 0
-108 709 0
119 710 0
-109 710 0
120 711 0
-110 711 0
-707 -708 -709 -710 -711 712 0
-706 -712 713 0
-713 -755 0
6 741 0
-16 741 0
7 742 0
-17 742 0
8 743 0
-18 743 0
9 744 0
-19 744 0
10 745 0
-20 745 0
-741 -742 -743 -744 -745 746 0
16 747 0
-6 747 0
17 748 0
-7 748 0
18 749 0
-8 749 0
19 750 0
-9 750 0
20 751 0
-10 751 0
-747 -748 -749 -750 -751 752 0
-746 -752 753 0
-753 -754 0
31 727 0
-41 727 0
32 728 0
-42 728 0
33 729 0
-43 729 0
34 730 0
-44 730 0
35 731 0
-45 731 0
-727 -728 -729 -730 -731 732 0
41 733 0
-31 733 0
42 734 0
-32 734 0
43 735 0
-33 735 0
44 736 0
-34 736 0
45 737 0
-35 737 0
-733 -734 -735 -736 -737 738 0
-732 -738 739 0
-739 -740 0
81 714 0
-91 714 0
82 715 0
-92 715 0
83 716 0
-93 716 0
84 717 0
-94 717 0
85 718 0
-95 718 0
-714 -715 -716 -717 -718 719 0
91 720 0
-81 720 0
92 721 0
-82 721 0
93 722 0
-83 722 0
94 723 0
-84 723 0
95 724 0
-85 724 0
-720 -721 -722 -723 -724 725 0
-719 -725 726 0
-726 -740 0
740 -754 0
754 -755 0
755 -769 0
769 -1046 0
56 825 0
-71 825 0
57 826 0
-72 826 0
58 827 0
-73 827 0
59 828 0
-74 828 0
60 829 0
-75 829 0
-825 -826 -827 -828 -829 830 0
71 831 0
-56 831 0
72 832 0
-57 832 0
73 833 0
-58 833 0
74 834 0
-59 834 0
75 835 0
-60 835 0
-831 -832 -833 -834 -835 836 0
-830 -836 837 0
-837 -838 0
106 770 0
-121 770 0
107 771 0
-122 771 0
108 772 0
-123 772 0
109 773 0
-124 773 0
110 774 0
-125 774 0
-770 -771 -772 -773 -774 775 0
121 776 0
-106 776 0
122 777 0
-107 777 0
123 778 0
-108 778 0
124 779 0
-109 779 0
125 780 0
-110 780 0
-776 -777 -778 -779 -780 781 0
-775 -781 782 0
-782 -824 0
6 810 0
-21 810 0
7 811 0
-22 811 0
8 812 0
-23 812 0
9 813 0
-24 813 0
10 814 0
-25 814 0
-810 -811 -812 -813 -814 815 0
21 816 0
-6 816 0
22 817 0
-7 817 0
23 818 0
-8 818 0
24 819 0
-9 819 0
25 820 0
-10 820 0
-816 -817 -818 -819 -820 821 0
-815 -821 822 0
-822 -823 0
31 796 0
-46 796 0
32 797 0
-47 797 0
33 798 0
-48 798 0
34 799 0
-49 799 0
35 800 0
-50 800 0
-796 -797 -798 -799 -800 801 0
46 802 0
-31 802 0
47 803 0
-32 803 0
48 804 0
-33 804 0
49 805 0
-34 805 0
50 806 0
-35 806 0
-802 -803 -804 -805 -806 807 0
-801 -807 808 0
-808 -809 0
81 783 0
-96 783 0
82 784 0
-97 784 0
83 785 0
-98 785 0
84 786 0
-99 786 0
85 787 0
-100 787 0
-783 -784 -785 -786 -787 788 0
96 789 0
-81 789 0
97 790 0
-82 790 0
98 791 0
-83 791 0
99 792 0
-84 792 0
100 793 0
-85 793 0
-789 -790 -791 -792 -793 794 0
-788 -794 795 0
-795 -809 0
809 -823 0
823 -824 0
824 -838 0
838 -1046 0
61 894 0
-66 894 0
62 895 0
-67 895 0
63 896 0
-68 896 0
64 897 0
-69 897 0
65 898 0
-70 898 0
-894 -895 -896 -897 -898 899 0
66 900 0
-61 900 0
67 901 0
-62 901 0
68 902 0
-63 902 0
69 903 0
-64 903 0
70 904 0
-65 904 0
-900 -901 -902 -903 -904 905 0
-899 -905 906 0
-906 -907 0
111 839 0
-116 839 0
112 840 0
-117 840 0
113 841 0
-118 841 0
114 842 0
-119 842 0
115 843 0
-120 843 0
-839 -840 -841 -842 -843 844 0
116 845 0
-111 845 0
117 846 0
-112 846 0
118 847 0
-113 847 0
119 848 0
-114 848 0
120 849 0
-115 849 0
-845 -846 -847 -848 -849 850 0
-844 -850 851 0
-851 -893 0
11 879 0
-16 879 0
12 880 0
-17 880 0
13 881 0
-18 881 0
14 882 0
-19 882 0
15 883 0
-20 883 0
-879 -880 -881 -882 -883 884 0
16 885 0
-11 885 0
17 886 0
-12 886 0
18 887 0
-13 887 0
19 888 0
-14 888 0
20 889 0
-15 889 0
-885 -886 -887 -888 -889 890 0
-884 -890 891 0
-891 -892 0
36 865 0
-41 865 0
37 866 0
-42 866 0
38 867 0
-43 867 0
39 868 0
-44 868 0
40 869 0
-45 869 0
-865 -866 -867 -868 -869 870 0
41 871 0
-36 871 0
42 872 0
-37 872 0
43 873 0
-38 873 0
44 874 0
-39 874 0
45 875 0
-40 875 0
-871 -872 -873 -874 -875 876 0
-870 -876 877 0
-877 -878 0
86 852 0
-91 852 0
87 853 0
-92 853 0
88 854 0
-93 854 0
89 855 0
-94 855 0
90 856 0
-95 856 0
-852 -853 -854 -855 -856 857 0
91 858 0
-86 858 0
92 859 0
-87 859 0
93 860 0
-88 860 0
94 861 0
-89 861 0
95 862 0
-90 862 0
-858 -859 -860 -861 -862 863 0
-857 -863 864 0
-864 -878 0
878 -892 0
892 -893 0
893 -907 0
907 -1046 0
61 963 0
-71 963 0
62 964 0
-72 964 0
63 965 0
-73 965 0
64 966 0
-74 966 0
65 967 0
-75 967 0
-963 -964 -965 -966 -967 968 0
71 969 0
-61 969 0
72 970 0
-62 970 0
73 971 0
-63 971 0
74 972 0
-64 972 0
75 973 0
-65 973 0
-969 -970 -971 -972 -973 974 0
-968 -974 975 0
-975 -976 0
111 908 0
-121 908 0
112 909 0
-122 909 0
113 910 0
-123 910 0
114 911 0
-124 911 0
115 912 0
-125 912 0
-908 -909 -910 -911 -912 913 0
121 914 0
-111 914 0
122 915 0
-112 915 0
123 916 0
-113 916 0
124 917 0
-114 917 0
125 918 0
-115 918 0
-914 -915 -916 -917 -918 919 0
-913 -919 920 0
-920 -962 0
11 948 0
-21 948 0
12 949 0
-22 949 0
13 950 0
-23 950 0
14 951 0
-24 951 0
15 952 0
-25 952 0
-948 -949 -950 -951 -952 953 0
21 954 0
-11 954 0
22 955 0
-12 955 0
23 956 0
-13 956 0
24 957 0
-14 957 0
25 958 0
-15 958 0
-954 -955 -956 -957 -958 959 0
-953 -959 960 0
-960 -961 0
36 934 0
-46 934 0
37 935 0
-47 935 0
38 936 0
-48 936 0
39 937 0
-49 937 0
40 938 0
-50 938 0
-934 -935 -936 -937 -938 939 0
46 940 0
-36 940 0
47 941 0
-37 941 0
48 942 0
-38 942 0
49 943 0
-39 943 0
50 944 0
-40 944 0
-940 -941 -942 -943 -944 945 0
-939 -945 946 0
-946 -947 0
86 921 0
-96 921 0
87 922 0
-97 922 0
88 923 0
-98 923 0
89 924 0
-99 924 0
90 925 0
-100 925 0
-921 -922 -923 -924 -925 926 0
96 927 0
-86 927 0
97 928 0
-87 928 0
98 929 0
-88 929 0
99 930 0
-89 930 0
100 931 0
-90 931 0
-927 -928 -929 -930 -931 932 0
-926 -932 933 0
-933 -947 0
947 -961 0
961 -962 0
962 -976 0
976 -1046 0
66 1032 0
-71 1032 0
67 1033 0
-72 1033 0
68 1034 0
-73 1034 0
69 1035 0
-74 1035 0
70 1036 0
-75 1036 0
-1032 -1033 -1034 -1035 -1036 1037 0
71 1038 0
-66 1038 0
72 1039 0
-67 1039 0
73 1040 0
-68 1040 0
74 1041 0
-69 1041 0
75 1042 0
-70 1042 0
-1038 -1039 -1040 -1041 -1042 1043 0
-1037 -1043 1044 0
-1044 -1045 0
116 977 0
-121 977 0
117 978 0
-122 978 0
118 979 0
-123 979 0
119 980 0
-124 980 0
120 981 0
-125 981 0
-977 -978 -979 -980 -981 982 0
121 983 0
-116 983 0
122 984 0
-117 984 0
123 985 0
-118 985 0
124 986 0
-119 986 0
125 987 0
-120 987 0
-983 -984 -985 -986 -987 988 0
-982 -988 989 0
-989 -1031 0
16 1017 0
-21 1017 0
17 1018 0
-22 1018 0
18 1019 0
-23 1019 0
19 1020 0
-24 1020 0
20 1021 0
-25 1021 0
-1017 -1018 -1019 -1020 -1021 1022 0
21 1023 0
-16 1023 0
22 1024 0
-17 1024 0
23 1025 0
-18 1025 0
24 1026 0
-19 1026 0
25 1027 0
-20 1027 0
-1023 -1024 -1025 -1026 -1027 1028 0
-1022 -1028 1029 0
-1029 -1030 0
41 1003 0
-46 1003 0
42 1004 0
-47 1004 0
43 1005 0
-48 1005 0
44 1006 0
-49 1006 0
45 1007 0
-50 1007 0
-1003 -1004 -1005 -1006 -1007 1008 0
46 1009 0
-41 1009 0
47 1010 0
-42 1010 0
48 1011 0
-43 1011 0
49 1012 0
-44 1012 0
50 1013 0
-45 1013 0
-1009 -1010 -1011 -1012 -1013 1014 0
-1008 -1014 1015 0
-1015 -1016 0
91 990 0
-96 990 0
92 991 0
-97 991 0
93 992 0
-98 992 0
94 993 0
-99 993 0
95 994 0
-100 994 0
-990 -991 -992 -993 -994 995 0
96 996 0
-91 996 0
97 997 0
-92 997 0
98 998 0
-93 998 0
99 999 0
-94 999 0
100 1000 0
-95 1000 0
-996 -997 -998 -999 -1000 1001 0
-995 -1001 1002 0
-1002 -1016 0
1016 -1030 0
1030 -1031 0
1031 -1045 0
1045 -1046 0
-28 3 -1047 0
1047 -1052 0
-33 8 -1048 0
1048 -1052 0
-38 13 -1049 0
1049 -1052 0
-43 18 -1050 0
1050 -1052 0
-48 23 -1051 0
1051 -1052 0
1052 -1059 0
-3 28 -1053 0
1053 -1058 0
-8 33 -1054 0
1054 -1058 0
-13 38 -1055 0
1055 -1058 0
-18 43 -1056 0
1056 -1058 0
-23 48 -1057 0
1057 -1058 0
1058 -1059 0
-29 104 -1060 0
1060 -1065 0
-34 109 -1061 0
1061 -1065 0
-39 114 -1062 0
1062 -1065 0
-44 119 -1063 0
1063 -1065 0
-49 124 -1064 0
1064 -1065 0
1065 -1072 0
-104 29 -1066 0
1066 -1071 0
-109 34 -1067 0
1067 -1071 0
-114 39 -1068 0
1068 -1071 0
-119 44 -1069 0
1069 -1071 0
-124 49 -1070 0
1070 -1071 0
1071 -1072 0
-55 5 -1073 0
1073 -1078 0
-60 10 -1074 0
1074 -1078 0
-65 15 -1075 0
1075 -1078 0
-70 20 -1076 0
1076 -1078 0
-75 25 -1077 0
1077 -1078 0
1078 -1085 0
-5 55 -1079 0
1079 -1084 0
-10 60 -1080 0
1080 -1084 0
-15 65 -1081 0
1081 -1084 0
-20 70 -1082 0
1082 -1084 0
-25 75 -1083 0
1083 -1084 0
1084 -1085 0
-27 52 -1086 0
1086 -1091 0
-32 57 -1087 0
1087 -1091 0
-37 62 -1088 0
1088 -1091 0
-42 67 -1089 0
1089 -1091 0
-47 72 -1090 0
1090 -1091 0
1091 -1098 0
-52 27 -1092 0
1092 -1097 0
-57 32 -1093 0
1093 -1097 0
-62 37 -1094 0
1094 -1097 0
-67 42 -1095 0
1095 -1097 0
-72 47 -1096 0
1096 -1097 0
1097 -1098 0
-5 -1103 0
-10 4 -1099 0
1099 -1103 0
-15 9 -1100 0
1100 -1103 0
-20 14 -1101 0
1101 -1103 0
-25 19 -1102 0
1102 -1103 0
1103 -1109 0
-4 10 -1104 0
1104 -1108 0
-9 15 -1105 0
1105 -1108 0
-14 20 -1106 0
1106 -1108 0
-19 25 -1107 0
1107 -1108 0
1108 -1109 0
-78 103 -1110 0
1110 -1115 0
-83 108 -1111 0
1111 -1115 0
-88 113 -1112 0
1112 -1115 0
-93 118 -1113 0
1113 -1115 0
-98 123 -1114 0
1114 -1115 0
1115 -1122 0
-103 78 -1116 0
1116 -1121 0
-108 83 -1117 0
1117 -1121 0
-113 88 -1118 0
1118 -1121 0
-118 93 -1119 0
1119 -1121 0
-123 98 -1120 0
1120 -1121 0
1121 -1122 0
-76 1 -1123 0
1123 -1128 0
-81 6 -1124 0
1124 -1128 0
-86 11 -1125 0
1125 -1128 0
-91 16 -1126 0
1126 -1128 0
-96 21 -1127 0
1127 -1128 0
1128 -1135 0
-1 76 -1129 0
1129 -1134 0
-6 81 -1130 0
1130 -1134 0
-11 86 -1131 0
1131 -1134 0
-16 91 -1132 0
1132 -1134 0
-21 96 -1133 0
1133 -1134 0
1134 -1135 0
63 -1137 0
-73 -1136 0
-68 -1136 0
-58 -1136 0
-53 -1136 0
1136 -1137 0
26 -1139 0
-46 -1138 0
-41 -1138 0
-36 -1138 0
-31 -1138 0
1138 -1139 0
-101 82 -1143 0
1143 -1148 0
77 87 -1140 0
-106 1140 -1144 0
1144 -1148 0
82 92 -1141 0
-111 1141 -1145 0
1145 -1148 0
87 97 -1142 0
-116 1142 -1146 0
1146 -1148 0
-121 92 -1147 0
1147 -1148 0
-102 81 -1152 0
1152 -1157 0
76 86 -1149 0
-107 1149 -1153 0
1153 -1157 0
81 91 -1150 0
-112 1150 -1154 0
1154 -1157 0
86 96 -1151 0
-117 1151 -1155 0
1155 -1157 0
-122 91 -1156 0
1156 -1157 0
-79 54 -1158 0
1158 -1163 0
-84 59 -1159 0
1159 -1163 0
-89 64 -1160 0
1160 -1163 0
-94 69 -1161 0
1161 -1163 0
-99 74 -1162 0
1162 -1163 0
1163 -1170 0
-54 79 -1164 0
1164 -1169 0
-59 84 -1165 0
1165 -1169 0
-64 89 -1166 0
1166 -1169 0
-69 94 -1167 0
1167 -1169 0
-74 99 -1168 0
1168 -1169 0
1169 -1170 0
-30 80 -1171 0
1171 -1176 0
-35 85 -1172 0
1172 -1176 0
-40 90 -1173 0
1173 -1176 0
-45 95 -1174 0
1174 -1176 0
-50 100 -1175 0
1175 -1176 0
1176 -1183 0
-80 30 -1177 0
1177 -1182 0
-85 35 -1178 0
1178 -1182 0
-90 40 -1179 0
1179 -1182 0
-95 45 -1180 0
1180 -1182 0
-100 50 -1181 0
1181 -1182 0
1182 -1183 0
-2 31 -1187 0
1187 -1192 0
26 36 -1184 0
-7 1184 -1188 0
1188 -1192 0
31 41 -1185 0
-12 1185 -1189 0
1189 -1192 0
36 46 -1186 0
-17 1186 -1190 0
1190 -1192 0
-22 41 -1191 0
1191 -1192 0
-56 -51 -1193 0
1193 -1201 0
-51 1194 0
-56 1194 0
51 56 -1194 0
-1194 -61 -1195 0
1195 -1201 0
-61 1196 0
-1194 1196 0
61 1194 -1196 0
-1196 -66 -1197 0
1197 -1201 0
-66 1198 0
-1196 1198 0
66 1196 -1198 0
-1198 -71 -1199 0
1199 -1201 0
71 1198 -1200 0
1200 -1201 0
-110 -105 -1202 0
1202 -1210 0
-105 1203 0
-110 1203 0
105 110 -1203 0
-1203 -115 -1204 0
1204 -1210 0
-115 1205 0
-1203 1205 0
115 1203 -1205 0
-1205 -120 -1206 0
1206 -1210 0
-120 1207 0
-1205 1207 0
120 1205 -1207 0
-1207 -125 -1208 0
1208 -1210 0
125 1207 -1209 0
1209 -1210 0
171 0
217 0
263 0
309 0
355 0
1046 0
1059 0
1072 0
1085 0
1098 0
1109 0
1122 0
1135 0
1137 0
1139 0
1148 0
1157 0
1170 0
1183 0
1192 0
1201 0
1210 0
